(declare-sort sk 0)
(declare-datatypes () ((Sign (Pos) (Neg))))
(declare-datatypes () ((Nat (Z) (S (p Nat)))))
(declare-datatypes () ((Integer (P (P_0 Nat)) (N (N_0 Nat)))))
(declare-fun toInteger (Sign Nat) Integer)
(declare-fun sign (Integer) Sign)
(declare-fun plus2 (Nat Nat) Nat)
(declare-fun opposite (Sign) Sign)
(declare-fun timesSign (Sign Sign) Sign)
(declare-fun mult (Nat Nat) Nat)
(declare-fun minus (Nat Nat) Integer)
(declare-fun plus (Integer Integer) Integer)
(declare-fun absVal (Integer) Nat)
(declare-fun times (Integer Integer) Integer)
(assert (forall ((y Nat)) (= (toInteger Pos y) (P y))))
(assert (= (toInteger Neg Z) (P Z)))
(assert (forall ((m Nat)) (= (toInteger Neg (S m)) (N m))))
(assert (forall ((y Nat)) (= (sign (P y)) Pos)))
(assert (forall ((z Nat)) (= (sign (N z)) Neg)))
(assert (forall ((y Nat)) (= (plus2 Z y) y)))
(assert
  (forall ((y Nat) (n Nat)) (= (plus2 (S n) y) (S (plus2 n y)))))
(assert (= (opposite Pos) Neg))
(assert (= (opposite Neg) Pos))
(assert (forall ((y Sign)) (= (timesSign Pos y) y)))
(assert (forall ((y Sign)) (= (timesSign Neg y) (opposite y))))
(assert (forall ((y Nat)) (= (mult Z y) Z)))
(assert
  (forall ((y Nat) (n Nat)) (= (mult (S n) y) (plus2 y (mult n y)))))
(assert (= (minus Z Z) (P Z)))
(assert (forall ((n Nat)) (= (minus Z (S n)) (N n))))
(assert (forall ((m Nat)) (= (minus (S m) Z) (P (S m)))))
(assert
  (forall ((m Nat) (o Nat)) (= (minus (S m) (S o)) (minus m o))))
(assert
  (forall ((m Nat) (n Nat)) (= (plus (P m) (P n)) (P (plus2 m n)))))
(assert
  (forall ((m Nat) (o Nat)) (= (plus (P m) (N o)) (minus m (S o)))))
(assert
  (forall ((m2 Nat) (n2 Nat))
    (= (plus (N m2) (P n2)) (minus n2 (S m2)))))
(assert
  (forall ((m2 Nat) (n3 Nat))
    (= (plus (N m2) (N n3)) (N (S (plus2 m2 n3))))))
(assert (forall ((n Nat)) (= (absVal (P n)) n)))
(assert (forall ((m Nat)) (= (absVal (N m)) (S m))))
(assert
  (forall ((x Integer) (y Integer))
    (= (times x y)
      (toInteger (timesSign (sign x) (sign y))
        (mult (absVal x) (absVal y))))))
(assert-not
  (forall ((x Integer) (y Integer) (z Integer))
    (= (times x (plus y z)) (plus (times x y) (times x z)))))
(check-sat)
